c ---- [ banner ] ------------------------------------------------------------
c
c Kissat SAT Solver
c 
c Copyright (c) 2021-2024 Armin Biere University of Freiburg
c Copyright (c) 2019-2021 Armin Biere Johannes Kepler University Linz
c 
c Version 4.0.1 43f02cf3e992cb44653b35e5cb26f93281552ae0
c gcc (Ubuntu 13.2.0-23ubuntu4) 13.2.0 -W -Wall -O3 -DNDEBUG
c Thu Sep 12 12:27:46 CEST 2024 Linux abryzen9 6.8.0-41-generic x86_64
c
c ---- [ parsing ] -----------------------------------------------------------
c
c opened and reading DIMACS file:
c
c   /data/artifact/AMulet2.0_artifact/exp4/cnf_compress2rs_64/64_64_U1_WT_KS_Multgen_compress2rs.cnf
c
c parsed 'p cnf 36518 142108' header
c closing input after reading 2767624 bytes (3 MB)
c finished parsing after 0.02 seconds
c
c ---- [ options ] -----------------------------------------------------------
c
c --stable=0                       (different from default '1')
c
c ---- [ solving ] -----------------------------------------------------------
c
c  seconds switched rate     size/glue tier1  binary           remaining
c         MB reductions conflicts size  tier2     irredundant
c          level restarts redundant glue  trail           variables
c
c *  0.02 11 0 0 0  0 0   0   0 0.0 0 0 0 0 0% 29355 112751 36515 100%
c (  0.04 13 0 0 0  0 0   0   0 0.0 0 0 0 0 0% 29355 112751 36515 100%
c .  0.05 13 0 0 0  0 0   0   0 0.0 0 0 0 0 0% 29351 112751 36515 100%
c c  0.12 21 0 0 0  0 0   0   0 0.0 0 0 0 0 0% 36914 97864 32733 90%
c d  0.12 21 0 0 0  0 0   0   0 0.0 0 0 0 0 0% 29350 97864 32733 90%
c =  0.16 21 0 0 0  0 0   0   0 0.0 0 0 0 0 0% 29734 97864 32462 89%
c d  0.17 21 0 0 0  0 0   0   0 0.0 0 0 0 0 0% 29192 97864 32462 89%
c f  0.24 20 0 0 0  0 0   0   0 0.0 0 0 0 0 0% 32086 93237 34193 94%
c e  0.34 29 0 0 0  0 0   0   0 0.0 0 0 0 0 0% 10474 107156 23167 63%
c )  0.34 29 0 0 0  0 0   0   0 0.0 0 0 0 0 0% 10474 107156 23167 63%
c {  0.35 29 0 0 0  0 0   0   0 0.0 0 0 2 6 0% 10474 107156 23167 63%
c -  0.47 29 240 0 1 261 31 1000 697 3.1 13 4 3 9 16% 10566 107149 23167 63%
c -  0.75 29 267 0 2 544 50 2000 1481 4.3 23 5 3 10 22% 10587 107149 23167 63%
c c  0.93 24 233 0 2 655 46 2503 1957 4.1 23 6 3 10 22% 10617 107142 23165 63%
c d  0.94 24 233 0 2 655 46 2503 1956 4.1 23 6 3 10 22% 10613 107142 23165 63%
c u  0.95 24 233 0 2 655 46 2503 1526 4.1 23 6 3 10 22% 10624 107142 23165 63%
c v  0.97 24 233 0 2 655 46 2503 1268 4.1 23 6 3 10 22% 10624 107142 23165 63%
c w  0.99 24 233 0 2 655 46 2503 1261 4.1 23 6 3 10 22% 10624 107142 23165 63%
c x  1.01 24 233 0 2 655 46 2503 1261 4.1 23 6 3 10 22% 10712 106963 23165 63%
c =  1.08 24 233 0 2 655 46 2503 1261 4.1 23 6 3 10 22% 11146 106963 22948 63%
c
c  seconds   switched   rate       size/glue tier1     binary           remaining
c         MB  reductions conflicts       size  tier2       irredundant
c           level restarts    redundant    glue    trail           variables
c
c d  1.08 24 233 0 2 655 46 2503 1255 4.1 23 6 3 10 22% 10708 106963 22948 63%
c t  1.09 24 233 0 2 655 46 2503 1255 4.1 23 6 3 10 22% 10705 106963 22948 63%
c f  1.12 25 233 0 2 655 46 2503 1255 4.1 23 6 3 10 22% 11460 105547 23608 65%
c u  1.14 25 233 0 2 655 46 2503 1197 4.1 23 6 3 10 22% 11460 105547 23608 65%
c v  1.15 25 233 0 2 655 46 2503 1152 4.1 23 6 3 10 22% 11460 105547 23608 65%
c w  1.18 25 233 0 2 655 46 2503 1141 4.1 23 6 3 10 22% 11460 105547 23608 65%
c x  1.20 25 233 0 2 655 46 2503 1141 4.1 23 6 3 10 22% 11462 105200 23608 65%
c =  1.28 25 233 0 2 655 46 2503 1141 4.1 23 6 3 10 22% 12110 105200 23284 64%
c d  1.28 25 233 0 2 655 46 2503 1141 4.1 23 6 3 10 22% 11408 105200 23284 64%
c f  1.33 25 233 0 2 655 46 2503 1141 4.1 23 6 3 10 22% 12250 103931 23703 65%
c -  1.67 25 252 0 3 857 48 3415 1697 4.5 33 7 2 9 26% 12262 103931 23703 65%
c -  1.99 25 326 0 4 1004 42 5147 2770 4.0 33 8 2 10 26% 12324 103927 23703 65%
c -  2.33 25 355 0 5 1118 37 7147 3863 4.1 33 8 2 10 27% 12386 103926 23703 65%
c c  2.45 25 369 0 5 1137 37 7707 4321 4.1 32 8 2 10 26% 12417 103821 23680 65%
c d  2.46 25 369 0 5 1137 37 7707 4317 4.1 32 8 2 10 26% 12324 103821 23653 65%
c u  2.47 25 369 0 5 1137 37 7707 3517 4.1 32 8 2 10 26% 12340 103821 23653 65%
c v  2.50 25 369 0 5 1137 37 7707 2990 4.1 32 8 2 10 26% 12340 103821 23653 65%
c w  2.53 27 369 0 5 1137 37 7707 2986 4.1 32 8 2 10 26% 12340 103821 23653 65%
c x  2.56 27 369 0 5 1137 37 7707 2986 4.1 32 8 2 10 26% 12359 98827 23653 65%
c =  2.71 27 369 0 5 1137 37 7707 2986 4.1 32 8 2 10 26% 13285 98827 23190 64%
c
c  seconds   switched    rate       size/glue tier1     binary          remaining
c         MB  reductions  conflicts       size  tier2       irredundant
c           level  restarts    redundant    glue    trail          variables
c
c d  2.72 27 369 0 5 1137 37 7707 2980 4.1 32 8 2 10 26% 12276 98827 23188 63%
c t  2.75 27 369 0 5 1137 37 7707 2980 4.1 32 8 2 10 26% 12253 98827 23188 63%
c f  2.82 27 369 0 5 1137 37 7707 2980 4.1 32 8 2 10 26% 13565 96859 23844 65%
c u  2.88 27 369 0 5 1137 37 7707 2742 4.1 32 8 2 10 26% 13566 96859 23844 65%
c v  2.91 27 369 0 5 1137 37 7707 2639 4.1 32 8 2 10 26% 13566 96859 23844 65%
c w  2.96 27 369 0 5 1137 37 7707 2639 4.1 32 8 2 10 26% 13566 96859 23844 65%
c x  3.02 28 369 0 5 1137 37 7707 2639 4.1 32 8 2 10 26% 13646 94102 23844 65%
c =  3.14 28 369 0 5 1137 37 7707 2639 4.1 32 8 2 10 26% 14018 94102 23658 65%
c d  3.15 28 369 0 5 1137 37 7707 2623 4.1 32 8 2 10 26% 13623 94102 23658 65%
c t  3.16 28 369 0 5 1137 37 7707 2623 4.1 32 8 2 10 26% 13610 94102 23658 65%
c f  3.19 28 369 0 5 1137 37 7707 2623 4.1 32 8 2 10 26% 13612 94099 23659 65%
c -  3.45 28 359 0 6 1228 34 9383 3467 4.2 32 7 2 9 26% 13682 94099 23659 65%
c o  3.56 28 372 0 6 1289 34 10011 4035 4.3 32 7 2 9 26% 13704 94099 23659 65%
c -  3.80 28 354 0 7 1401 33 11835 4796 4.3 32 7 2 9 26% 13785 94099 23659 65%
c s  3.90 28 339 0 7 1413 32 12511 5342 4.3 31 7 2 9 25% 13837 93134 23659 65%
c e  4.03 28 339 0 7 1413 32 12511 5342 4.3 31 7 2 9 25% 11550 94705 21923 60%
c s  4.04 28 339 0 7 1413 32 12511 5342 4.3 31 7 2 9 25% 11556 93855 21923 60%
c e  4.06 28 339 0 7 1413 32 12511 5342 4.3 31 7 2 9 25% 11555 93856 21922 60%
c ^  4.06 28 339 0 7 1413 32 12511 5342 4.3 31 7 2 9 25% 11555 93856 21922 60%
c -  4.30 27 375 0 8 1468 30 14480 5563 4.2 29 7 2 8 25% 11631 93855 21922 60%
c
c  seconds   switched    rate        size/glue tier1    binary          remaining
c         MB  reductions   conflicts       size  tier2      irredundant
c           level  restarts     redundant    glue   trail          variables
c
c d  4.60 27 374 0 8 1584 30 15784 6719 4.2 30 7 2 8 25% 11400 93855 21760 60%
c u  4.62 27 374 0 8 1584 30 15784 5424 4.2 30 7 2 8 25% 11415 93855 21760 60%
c v  4.65 27 374 0 8 1584 30 15784 4733 4.2 30 7 2 8 25% 11419 93855 21760 60%
c w  4.70 27 374 0 8 1584 30 15784 4732 4.2 30 7 2 8 25% 11419 93855 21760 60%
c x  4.72 27 374 0 8 1584 30 15784 4732 4.2 30 7 2 8 25% 11419 93669 21760 60%
c =  4.84 27 374 0 8 1584 30 15784 4732 4.2 30 7 2 8 25% 12661 93669 21139 58%
c d  4.85 27 374 0 8 1584 30 15784 4707 4.2 30 7 2 8 25% 11160 93669 21137 58%
c t  4.86 27 374 0 8 1584 30 15784 4707 4.2 30 7 2 8 25% 11140 93669 21137 58%
c f  4.90 27 374 0 8 1584 30 15784 4707 4.2 30 7 2 8 25% 11151 93628 21151 58%
c u  4.96 27 374 0 8 1584 30 15784 4455 4.2 30 7 2 8 25% 11155 93628 21151 58%
c v  4.98 27 374 0 8 1584 30 15784 4347 4.2 30 7 2 8 25% 11155 93628 21151 58%
c w  5.03 27 374 0 8 1584 30 15784 4332 4.2 30 7 2 8 25% 11155 93628 21151 58%
c x  5.06 27 374 0 8 1584 30 15784 4330 4.2 30 7 2 8 25% 11185 92848 21151 58%
c =  5.18 27 374 0 8 1584 30 15784 4330 4.2 30 7 2 8 25% 12075 92848 20706 57%
c d  5.19 27 374 0 8 1584 30 15784 4303 4.2 30 7 2 8 25% 10990 92848 20706 57%
c t  5.21 27 374 0 8 1584 30 15784 4303 4.2 30 7 2 8 25% 10988 92848 20706 57%
c f  5.23 27 374 0 8 1584 30 15784 4303 4.2 30 7 2 8 25% 10991 92836 20710 57%
c -  5.41 27 376 0 9 1667 30 17308 4988 4.2 29 7 2 8 24% 11064 92832 20710 57%
c o  5.97 27 366 0 9 1921 30 20013 7375 4.3 29 7 2 8 25% 11135 92827 20710 57%
c -  6.05 27 363 0 10 1960 30 20308 6792 4.3 30 7 2 8 25% 11137 92827 20710 57%
c
c  seconds   switched     rate        size/glue tier1    binary          remaining
c         MB   reductions   conflicts       size  tier2      irredundant
c           level   restarts     redundant    glue   trail          variables
c
c -  6.67 27 355 0 11 2225 30 23470 8492 4.3 30 7 2 7 25% 11217 92820 20710 57%
c s  6.92 27 352 0 11 2349 30 25012 9737 4.3 30 7 2 7 25% 11270 91857 20710 57%
c e  7.04 27 352 0 11 2349 30 25012 9737 4.3 30 7 2 7 25% 10250 95049 18172 50%
c s  7.05 27 352 0 11 2349 30 25012 9737 4.3 30 7 2 7 25% 10286 91253 18172 50%
c e  7.08 27 352 0 11 2349 30 25012 9737 4.3 30 7 2 7 25% 10255 91302 18149 50%
c ^  7.09 27 352 0 11 2349 30 25012 9737 4.3 30 7 2 7 25% 10255 91302 18149 50%
c -  7.33 27 342 0 12 2438 30 26786 8167 4.2 29 7 2 7 25% 10298 91297 18149 50%
c d  7.36 27 341 0 12 2445 29 26911 8276 4.2 29 7 2 7 25% 10143 91297 18050 49%
c u  7.40 27 341 0 12 2445 29 26911 6873 4.2 29 7 2 7 25% 10169 91297 18050 49%
c v  7.44 27 341 0 12 2445 29 26911 5866 4.2 29 7 2 7 25% 10171 91297 18050 49%
c w  7.45 27 341 0 12 2445 29 26911 5861 4.2 29 7 2 7 25% 10171 91297 18050 49%
c x  7.55 27 341 0 12 2445 29 26911 5858 4.2 29 7 2 7 25% 10200 88971 18050 49%
c =  7.77 27 341 0 12 2445 29 26911 5858 4.2 29 7 2 7 25% 12506 88971 16897 46%
c d  7.78 27 341 0 12 2445 29 26911 5691 4.2 29 7 2 7 25% 10045 88971 16895 46%
c t  7.79 27 341 0 12 2445 29 26911 5691 4.2 29 7 2 7 25% 10003 88971 16895 46%
c f  7.86 27 341 0 12 2445 29 26911 5691 4.2 29 7 2 7 25% 10006 88869 16917 46%
c u  7.90 27 341 0 12 2445 29 26911 5221 4.2 29 7 2 7 25% 10008 88869 16917 46%
c v  7.93 27 341 0 12 2445 29 26911 5090 4.2 29 7 2 7 25% 10008 88869 16917 46%
c w  7.94 27 341 0 12 2445 29 26911 5089 4.2 29 7 2 7 25% 10008 88869 16917 46%
c x  8.06 27 341 0 12 2445 29 26911 5089 4.2 29 7 2 7 25% 10014 81092 16917 46%
c
c  seconds   switched     rate        size/glue tier1    binary          remaining
c         MB   reductions   conflicts       size  tier2      irredundant
c           level   restarts     redundant    glue   trail          variables
c
c =  8.23 27 341 0 12 2445 29 26911 5089 4.2 29 7 2 7 25% 10528 81092 16660 46%
c d  8.23 27 341 0 12 2445 29 26911 5083 4.2 29 7 2 7 25% 10013 81092 16660 46%
c t  8.25 27 341 0 12 2445 29 26911 5083 4.2 29 7 2 7 25% 9994 81092 16660 46%
c f  8.26 27 341 0 12 2445 29 26911 5083 4.2 29 7 2 7 25% 9998 81072 16665 46%
c -  8.54 27 323 0 13 2599 28 30252 7072 4.0 27 7 2 7 25% 10044 81072 16665 46%
c -  8.98 27 317 0 14 2844 28 33857 9176 4.0 27 7 2 7 25% 10098 81072 16665 46%
c -  9.42 27 315 0 15 3055 27 37598 11026 3.9 26 7 2 7 24% 10150 81069 16665 46%
c o  9.61 27 314 0 15 3150 26 40311 13270 3.8 25 7 2 7 24% 10203 81069 16665 46%
c d  9.73 27 313 0 15 3210 26 41241 13990 3.8 25 7 2 7 24% 10070 81064 16575 45%
c u  9.78 27 313 0 15 3210 26 41241 11896 3.8 25 7 2 7 24% 10097 81064 16575 45%
c v  9.81 27 313 0 15 3210 26 41241 11234 3.8 25 7 2 7 24% 10097 81064 16575 45%
c w  9.84 27 313 0 15 3210 26 41241 11234 3.8 25 7 2 7 24% 10097 81064 16575 45%
c x  9.88 27 313 0 15 3210 26 41241 11233 3.8 25 7 2 7 24% 10101 79454 16575 45%
c = 10.02 27 313 0 15 3210 26 41241 11233 3.8 25 7 2 7 24% 10695 79454 16278 45%
c d 10.03 27 313 0 15 3210 26 41241 11123 3.8 25 7 2 7 24% 10050 79454 16273 45%
c t 10.04 27 313 0 15 3210 26 41241 11123 3.8 25 7 2 7 24% 10034 79454 16273 45%
c c 10.10 27 313 0 15 3210 26 41241 11123 3.8 25 7 2 7 24% 10055 79378 16263 45%
c d 10.10 27 313 0 15 3210 26 41241 11103 3.8 25 7 2 7 24% 10035 79378 16263 45%
c u 10.14 27 313 0 15 3210 26 41241 10645 3.8 25 7 2 7 24% 10042 79378 16263 45%
c v 10.17 27 313 0 15 3210 26 41241 9729 3.8 25 7 2 7 24% 10043 79378 16263 45%
c
c  seconds   switched     rate        size/glue tier1    binary          remaining
c         MB   reductions   conflicts       size  tier2      irredundant
c           level   restarts     redundant    glue   trail          variables
c
c w 10.21 27 313 0 15 3210 26 41241 9727 3.8 25 7 2 7 24% 10043 79378 16263 45%
c x 10.26 27 313 0 15 3210 26 41241 9727 3.8 25 7 2 7 24% 10046 76832 16263 45%
c = 10.40 27 313 0 15 3210 26 41241 9727 3.8 25 7 2 7 24% 10926 76832 15823 43%
c d 10.41 27 313 0 15 3210 26 41241 9527 3.8 25 7 2 7 24% 9965 76832 15823 43%
c t 10.42 27 313 0 15 3210 26 41241 9527 3.8 25 7 2 7 24% 9958 76832 15823 43%
c f 10.44 27 313 0 15 3210 26 41241 9527 3.8 25 7 2 7 24% 9960 76816 15827 43%
c - 10.48 27 311 0 16 3220 26 41470 8669 3.8 25 7 2 7 24% 9963 76816 15827 43%
c - 10.73 27 308 0 17 3396 25 45471 10888 3.7 24 7 2 6 23% 10012 76814 15827 43%
c - 11.28 27 296 0 18 3790 25 49594 13110 3.7 25 7 2 6 24% 10056 76812 15827 43%
c s 11.58 27 292 0 18 4011 26 52113 15306 3.7 25 7 2 6 23% 10081 74937 15827 43%
c e 11.66 27 292 0 18 4011 26 52113 15306 3.7 25 7 2 6 23% 8650 77660 14710 40%
c s 11.66 27 292 0 18 4011 26 52113 15306 3.7 25 7 2 6 23% 8666 76933 14710 40%
c e 11.67 27 292 0 18 4011 26 52113 15306 3.7 25 7 2 6 23% 8650 76961 14695 40%
c ^ 11.67 27 292 0 18 4011 26 52113 15306 3.7 25 7 2 6 23% 8650 76961 14695 40%
c - 11.86 27 286 0 19 4127 25 53836 13293 3.6 24 7 2 6 24% 8663 76960 14695 40%
c - 12.28 27 272 0 20 4369 24 58194 15328 3.5 23 7 2 6 24% 8707 76958 14695 40%
c d 12.40 27 270 0 20 4440 24 58880 15924 3.4 23 7 2 6 24% 8663 76958 14673 40%
c u 12.45 27 270 0 20 4440 24 58880 13010 3.4 23 7 2 6 24% 8681 76958 14673 40%
c v 12.49 27 270 0 20 4440 24 58880 11423 3.4 23 7 2 6 24% 8683 76958 14673 40%
c w 12.52 27 270 0 20 4440 24 58880 11422 3.4 23 7 2 6 24% 8683 76958 14673 40%
c
c  seconds   switched     rate         size/glue tier1    binary         remaining
c         MB   reductions   conflicts        size  tier2     irredundant
c           level   restarts      redundant    glue   trail         variables
c
c x 12.57 27 270 0 20 4440 24 58880 11422 3.4 23 7 2 6 24% 8686 76368 14673 40%
c d 12.77 27 270 0 20 4440 24 58880 11418 3.4 23 7 2 6 24% 8678 76368 14669 40%
c t 12.78 27 270 0 20 4440 24 58880 11418 3.4 23 7 2 6 24% 8666 76368 14669 40%
c f 12.82 27 270 0 20 4440 24 58880 11418 3.4 23 7 2 6 24% 8672 76309 14679 40%
c u 12.86 27 270 0 20 4440 24 58880 10977 3.4 23 7 2 6 24% 8674 76309 14679 40%
c v 12.89 27 270 0 20 4440 24 58880 10746 3.4 23 7 2 6 24% 8674 76309 14679 40%
c w 12.93 27 270 0 20 4440 24 58880 10709 3.4 23 7 2 6 24% 8674 76309 14679 40%
c x 12.99 27 270 0 20 4440 24 58880 10709 3.4 23 7 2 6 24% 8675 76169 14679 40%
c d 12.99 27 270 0 20 4440 24 58880 10709 3.4 23 7 2 6 24% 8673 76169 14678 40%
c - 13.47 27 258 0 21 4748 24 62667 12640 3.3 22 7 2 6 24% 8703 76166 14678 40%
c - 13.83 27 249 0 22 4991 23 67250 14916 3.3 22 7 2 6 24% 8756 76165 14678 40%
c o 14.31 27 243 0 22 5345 23 70326 17771 3.2 22 7 2 6 24% 8775 76165 14678 40%
c - 14.56 27 240 0 23 5516 23 71940 17082 3.2 21 7 2 6 24% 8789 76165 14678 40%
c - 15.47 27 236 0 24 6069 23 76737 17217 3.2 22 7 1 6 25% 8849 76163 14678 40%
c d 16.04 27 237 0 24 6326 23 79952 19813 3.2 22 7 1 6 25% 8732 76161 14597 40%
c u 16.10 27 237 0 24 6326 23 79952 17993 3.2 22 7 1 6 25% 8762 76161 14597 40%
c v 16.24 27 237 0 24 6326 23 79952 14900 3.2 22 7 1 6 25% 8777 76161 14597 40%
c w 16.46 27 237 0 24 6326 23 79952 14818 3.2 22 7 1 6 25% 8777 76161 14597 40%
c = 16.85 27 237 0 24 6326 23 79952 14818 3.2 22 7 1 6 25% 9309 76156 14331 39%
c d 16.85 27 237 0 24 6326 23 79952 14518 3.2 22 7 1 6 25% 8691 76156 14327 39%
c
c  seconds   switched     rate         size/glue tier1    binary         remaining
c         MB   reductions   conflicts        size  tier2     irredundant
c           level   restarts      redundant    glue   trail         variables
c
c t 16.87 27 237 0 24 6326 23 79952 14518 3.2 22 7 1 6 25% 8675 76156 14327 39%
c f 16.90 27 237 0 24 6326 23 79952 14518 3.2 22 7 1 6 25% 8674 76152 14328 39%
c u 16.97 27 237 0 24 6326 23 79952 13878 3.2 22 7 1 6 25% 8678 76152 14328 39%
c v 17.06 27 237 0 24 6326 23 79952 13256 3.2 22 7 1 6 25% 8681 76152 14328 39%
c w 17.22 27 237 0 24 6326 23 79952 13169 3.2 22 7 1 6 25% 8681 76152 14328 39%
c x 17.32 27 237 0 24 6326 23 79952 13158 3.2 22 7 1 6 25% 8688 73635 14328 39%
c = 17.76 27 237 0 24 6326 23 79952 13158 3.2 22 7 1 6 25% 9208 73627 14068 39%
c d 17.77 27 237 0 24 6326 23 79952 13013 3.2 22 7 1 6 25% 8650 73627 14068 39%
c t 17.79 27 237 0 24 6326 23 79952 13013 3.2 22 7 1 6 25% 8628 73627 14068 39%
c f 17.81 27 237 0 24 6326 23 79952 13013 3.2 22 7 1 6 25% 8629 73613 14070 39%
c - 18.03 27 235 0 25 6396 23 81637 12078 3.1 21 7 1 5 24% 8666 73612 14070 39%
c - 19.14 27 227 0 26 6921 23 86637 14165 3.1 21 7 1 5 25% 8705 73608 14070 39%
c - 19.88 27 224 0 27 7255 23 91736 16043 3.0 21 7 1 5 25% 8761 73607 14070 39%
c s 20.66 27 219 0 27 7600 23 95798 19561 3.0 21 7 1 5 25% 8825 72741 14070 39%
c e 20.79 27 219 0 27 7600 23 95798 19561 3.0 21 7 1 5 25% 5852 80437 12446 34%
c 2 20.80 27 219 0 27 7600 23 95798 19561 3.0 21 7 1 5 25% 5851 80437 12446 34%
c s 20.82 27 219 0 27 7600 23 95798 19561 3.0 21 7 1 5 25% 5869 79611 12446 34%
c e 20.84 27 219 0 27 7600 23 95798 19561 3.0 21 7 1 5 25% 5846 79690 12422 34%
c ^ 20.84 27 219 0 27 7600 23 95798 19561 3.0 21 7 1 5 25% 5846 79690 12422 34%
c - 21.11 27 217 0 28 7761 23 96933 13306 3.0 21 7 1 5 25% 5849 79690 12422 34%
c
c  seconds   switched     rate          size/glue tier1    binary         remaining
c         MB   reductions   conflicts         size  tier2     irredundant
c           level   restarts       redundant    glue   trail         variables
c
c - 22.64 27 212 0 29 8327 23 102224 15546 3.0 21 7 1 5 25% 5887 79687 12422 34%
c c 23.59 27 209 0 29 8701 23 104585 17711 3.0 21 7 1 5 25% 5969 79374 12370 34%
c d 23.60 27 209 0 29 8701 23 104585 17558 3.0 21 7 1 5 25% 5865 79374 12370 34%
c u 23.69 27 209 0 29 8701 23 104585 15708 3.0 21 7 1 5 25% 5890 79374 12370 34%
c v 23.81 27 209 0 29 8701 23 104585 13162 3.0 21 7 1 5 25% 5899 79374 12370 34%
c w 24.09 27 209 0 29 8701 23 104585 13123 3.0 21 7 1 5 25% 5899 79374 12370 34%
c x 24.25 27 209 0 29 8701 23 104585 13121 3.0 21 7 1 5 25% 5929 78122 12370 34%
c = 24.77 27 209 0 29 8701 23 104585 13121 3.0 21 7 1 5 25% 6593 78122 12038 33%
c d 24.78 27 209 0 29 8701 23 104585 12751 3.0 21 7 1 5 25% 5854 78122 12038 33%
c t 24.80 27 209 0 29 8701 23 104585 12751 3.0 21 7 1 5 25% 5809 78122 12038 33%
c f 24.91 27 209 0 29 8701 23 104585 12751 3.0 21 7 1 5 25% 5848 77900 12058 33%
c u 25.00 27 209 0 29 8701 23 104585 12073 3.0 21 7 1 5 25% 5853 77900 12058 33%
c v 25.08 27 209 0 29 8701 23 104585 11592 3.0 21 7 1 5 25% 5853 77900 12058 33%
c w 25.24 27 209 0 29 8701 23 104585 11250 3.0 21 7 1 5 25% 5853 77900 12058 33%
c x 25.30 27 209 0 29 8701 23 104585 11250 3.0 21 7 1 5 25% 5854 77879 12058 33%
c = 25.68 27 209 0 29 8701 23 104585 11250 3.0 21 7 1 5 25% 5936 77803 12008 33%
c d 25.68 27 209 0 29 8701 23 104585 11224 3.0 21 7 1 5 25% 5848 77802 12008 33%
c t 25.69 27 209 0 29 8701 23 104585 11224 3.0 21 7 1 5 25% 5826 77802 12008 33%
c - 26.00 27 206 0 30 8940 23 107609 12012 3.0 21 7 1 5 25% 5831 77802 12008 33%
c o 26.18 27 202 0 30 9046 22 110477 14450 2.9 20 7 1 5 25% 5841 77801 12008 33%
c
c  seconds   switched     rate          size/glue tier1    binary         remaining
c         MB   reductions   conflicts         size  tier2     irredundant
c           level   restarts       redundant    glue   trail         variables
c
c - 26.56 27 199 0 31 9322 22 113088 14603 2.9 20 7 1 5 25% 5850 77800 12008 33%
c - 27.26 27 193 0 32 9845 22 118656 16681 2.9 20 7 1 5 25% 5890 77799 12008 33%
c - 28.40 27 189 0 33 10544 22 124312 18396 2.9 21 7 1 5 26% 5926 77796 12008 33%
c - 29.33 27 185 0 34 11087 22 130057 19981 2.9 21 7 1 5 26% 5957 77796 12008 33%
c d 29.65 27 182 0 34 11301 22 132842 22208 2.9 21 7 1 5 26% 5878 77796 11954 33%
c u 29.70 27 182 0 34 11301 22 132842 19833 2.9 21 7 1 5 26% 5903 77796 11954 33%
c v 29.77 27 182 0 34 11301 22 132842 16357 2.9 21 7 1 5 26% 5914 77796 11954 33%
c w 29.91 27 182 0 34 11301 22 132842 15876 2.9 21 7 1 5 26% 5914 77796 11954 33%
c = 30.34 27 182 0 34 11301 22 132842 15876 2.9 21 7 1 5 26% 6038 77796 11892 33%
c d 30.35 27 182 0 34 11301 22 132842 15710 2.9 21 7 1 5 26% 5873 77796 11886 33%
c t 30.36 27 182 0 34 11301 22 132842 15710 2.9 21 7 1 5 26% 5871 77796 11886 33%
c f 30.37 27 182 0 34 11301 22 132842 15710 2.9 21 7 1 5 26% 5879 77751 11890 33%
c c 30.40 27 182 0 34 11301 22 132842 15681 2.9 21 7 1 5 26% 5897 77638 11878 33%
c d 30.41 27 182 0 34 11301 22 132842 15681 2.9 21 7 1 5 26% 5873 77638 11878 33%
c u 30.44 27 182 0 34 11301 22 132842 15006 2.9 21 7 1 5 26% 5880 77638 11878 33%
c v 30.49 27 182 0 34 11301 22 132842 14369 2.9 21 7 1 5 26% 5881 77638 11878 33%
c w 30.59 27 182 0 34 11301 22 132842 14228 2.9 21 7 1 5 26% 5881 77638 11878 33%
c x 30.72 27 182 0 34 11301 22 132842 14206 2.9 21 7 1 5 26% 5921 73769 11878 33%
c = 31.15 27 182 0 34 11301 22 132842 14206 2.9 21 7 1 5 26% 5935 73769 11871 33%
c d 31.15 27 182 0 34 11301 22 132842 14201 2.9 21 7 1 5 26% 5918 73769 11871 33%
c
c  seconds   switched      rate          size/glue tier1    binary         remaining
c         MB   reductions    conflicts         size  tier2     irredundant
c           level   restarts        redundant    glue   trail         variables
c
c t 31.16 27 182 0 34 11301 22 132842 14201 2.9 21 7 1 5 26% 5894 73769 11871 33%
c - 31.67 27 181 0 35 11601 22 135888 14691 2.9 21 7 1 5 26% 5901 73766 11871 33%
c - 32.29 27 176 0 36 12028 22 141804 17453 2.8 21 7 1 5 26% 5920 73766 11871 33%
c - 32.77 27 171 0 37 12366 21 147804 19424 2.8 21 7 1 5 25% 5935 73765 11871 33%
c - 33.26 27 168 0 38 12686 20 153887 20902 2.8 21 7 1 5 24% 5966 73763 11871 33%
c s 33.88 27 167 0 38 13094 21 157874 24528 2.8 21 7 1 5 25% 5984 73687 11871 33%
c e 34.00 27 167 0 38 13094 21 157874 24528 2.8 21 7 1 5 25% 3220 86854 10077 28%
c s 34.03 27 167 0 38 13094 21 157874 24528 2.8 21 7 1 5 25% 3248 85741 10077 28%
c e 34.05 27 167 0 38 13094 21 157874 24528 2.8 21 7 1 5 25% 3198 85920 10035 27%
c ^ 34.05 27 167 0 38 13094 21 157874 24528 2.8 21 7 1 5 25% 3198 85920 10035 27%
c - 34.35 27 165 0 39 13312 21 160054 15492 2.8 21 7 1 5 25% 3200 85920 10035 27%
c o 34.36 27 165 0 39 13313 20 160510 15829 2.8 21 7 1 5 25% 3203 85919 10035 27%
c d 35.02 27 163 0 39 13714 20 164849 19829 2.8 21 7 1 5 25% 3203 85917 10032 27%
c u 35.09 27 163 0 39 13714 20 164849 17468 2.8 21 7 1 5 25% 3216 85917 10032 27%
c v 35.15 27 163 0 39 13714 20 164849 14702 2.8 21 7 1 5 25% 3220 85917 10032 27%
c w 35.27 27 163 0 39 13714 20 164849 14654 2.8 21 7 1 5 25% 3220 85917 10032 27%
c x 35.34 27 163 0 39 13714 20 164849 14653 2.8 21 7 1 5 25% 3220 85884 10032 27%
c = 35.76 27 163 0 39 13714 20 164849 14653 2.8 21 7 1 5 25% 3286 85872 9998 27%
c d 35.77 27 163 0 39 13714 20 164849 14588 2.8 21 7 1 5 25% 3207 85872 9998 27%
c t 35.78 27 163 0 39 13714 20 164849 14588 2.8 21 7 1 5 25% 3185 85872 9998 27%
c
c  seconds   switched      rate          size/glue tier1    binary         remaining
c         MB   reductions    conflicts         size  tier2     irredundant
c           level   restarts        redundant    glue   trail         variables
c
c f 35.87 27 163 0 39 13714 20 164849 14588 2.8 21 7 1 5 25% 3233 85247 10026 27%
c u 35.94 27 163 0 39 13714 20 164849 14072 2.8 21 7 1 5 25% 3245 85247 10026 27%
c v 35.97 27 163 0 39 13714 20 164849 13576 2.8 21 7 1 5 25% 3245 85247 10026 27%
c w 36.18 27 163 0 39 13714 20 164849 13105 2.8 21 7 1 5 25% 3245 85247 10026 27%
c = 36.59 27 163 0 39 13714 20 164849 13105 2.8 21 7 1 5 25% 3247 85247 10025 27%
c d 36.60 27 163 0 39 13714 20 164849 13103 2.8 21 7 1 5 25% 3245 85247 10025 27%
c t 36.61 27 163 0 39 13714 20 164849 13103 2.8 21 7 1 5 25% 3243 85247 10025 27%
c - 36.85 27 162 0 40 13860 20 166298 12500 2.8 21 7 1 5 25% 3243 85247 10025 27%
c i 36.87 27 163 0 40 13876 20 166741 12841 2.8 21 7 1 5 25% 3245 85247 10024 27%
c - 37.52 27 160 0 41 14357 20 172622 15475 2.7 20 7 1 5 25% 3255 85245 10024 27%
c i 37.78 27 160 0 41 14561 20 174167 16906 2.7 21 8 1 5 25% 3264 85245 10023 27%
c - 38.49 27 159 0 42 15103 20 179025 18060 2.7 21 8 1 5 26% 3266 85240 10023 27%
c - 39.59 27 157 0 43 15932 21 185505 20109 2.8 21 8 1 5 26% 3269 85238 10023 27%
c - 40.58 27 156 0 44 16619 21 192062 21826 2.8 22 8 1 5 26% 3283 85237 10023 27%
c i 40.63 27 156 0 44 16648 21 192323 22075 2.8 22 8 1 5 26% 3283 85237 10022 27%
c i 40.78 27 156 0 44 16765 21 193236 22890 2.8 22 8 1 5 26% 3290 85237 10021 27%
c i 40.96 27 155 0 44 16886 21 194384 23931 2.8 22 8 1 5 26% 3295 85237 10020 27%
c i 40.99 27 155 0 44 16899 21 194783 24279 2.8 22 8 1 5 26% 3300 85237 10019 27%
c i 41.00 27 155 0 44 16899 21 194911 24343 2.8 22 8 1 5 26% 3307 85237 10016 27%
c i 41.09 27 155 0 44 16966 21 195750 25126 2.8 22 8 1 5 26% 3308 85234 10008 27%
c
c  seconds   switched      rate          size/glue tier1    binary         remaining
c         MB   reductions    conflicts         size  tier2     irredundant
c           level   restarts        redundant    glue   trail         variables
c
c - 41.37 27 153 0 45 17155 20 198695 22623 2.7 22 8 1 5 26% 3285 85231 10008 27%
c d 41.60 27 152 0 45 17297 20 200643 24174 2.7 22 8 1 5 26% 3292 85051 9994 27%
c d 41.60 27 152 0 45 17297 20 200643 24163 2.7 22 8 1 5 26% 3266 85051 9981 27%
c b 41.60 27 152 0 45 17297 20 200643 24163 2.7 22 8 1 5 26% 3266 85051 9980 27%
c u 41.66 27 152 0 45 17297 20 200643 21637 2.7 22 8 1 5 26% 3295 85051 9979 27%
c v 41.74 27 152 0 45 17297 20 200643 17268 2.7 22 8 1 5 26% 3297 85051 9979 27%
c w 41.84 27 152 0 45 17297 20 200643 16799 2.7 22 8 1 5 26% 3297 85051 9979 27%
c x 41.93 27 152 0 45 17297 20 200643 16799 2.7 22 8 1 5 26% 3298 84987 9979 27%
c = 42.53 27 152 0 45 17297 20 200643 16799 2.7 22 8 1 5 26% 3381 84880 9928 27%
c d 42.53 27 152 0 45 17297 20 200643 16496 2.7 22 8 1 5 26% 3283 84880 9928 27%
c t 42.54 27 152 0 45 17297 20 200643 16496 2.7 22 8 1 5 26% 3263 84880 9928 27%
c u 42.60 27 152 0 45 17297 20 200643 15973 2.7 22 8 1 5 26% 3266 84880 9928 27%
c v 42.64 27 152 0 45 17297 20 200643 15262 2.7 22 8 1 5 26% 3267 84880 9928 27%
c w 42.72 27 152 0 45 17297 20 200643 15135 2.7 22 8 1 5 26% 3267 84880 9928 27%
c i 43.33 27 152 0 45 17297 20 200643 15135 2.7 22 8 1 5 26% 3267 84880 9928 27%
c i 43.37 27 151 0 45 17318 20 201208 15640 2.7 22 8 1 5 26% 3274 84880 9927 27%
c i 43.38 27 151 0 45 17331 20 201391 15805 2.7 22 8 1 5 26% 3278 84879 9926 27%
c i 43.40 27 151 0 45 17359 20 201641 16033 2.7 22 8 1 5 26% 3280 84879 9924 27%
c i 43.43 27 151 0 45 17388 20 202186 16527 2.7 22 8 1 5 26% 3284 84879 9923 27%
c - 43.55 27 148 0 46 17547 20 205404 16038 2.7 22 8 1 5 26% 3263 84878 9923 27%
c
c  seconds   switched      rate          size/glue tier1    binary        remaining
c         MB   reductions    conflicts         size  tier2     irredundant
c           level   restarts        redundant    glue   trail        variables
c
c i 43.61 27 144 0 46 17596 19 208541 18501 2.7 21 8 1 5 25% 3299 84877 9922 27%
c i 43.72 27 141 0 46 17766 19 211663 21238 2.7 21 8 1 5 24% 3323 84876 9921 27%
c - 43.73 27 141 0 47 17770 19 212186 17928 2.7 21 8 1 5 24% 3313 84876 9921 27%
c i 43.73 27 141 0 47 17770 19 212213 17947 2.7 21 8 1 5 24% 3315 84876 9920 27%
c i 43.77 27 140 0 47 17810 19 212994 18610 2.7 21 8 1 5 24% 3324 84875 9919 27%
c i 43.81 27 139 0 47 17852 18 214255 19729 2.7 21 8 1 5 24% 3335 84875 9918 27%
c i 43.82 27 139 0 47 17887 18 214520 19958 2.7 21 8 1 5 24% 3339 84875 9917 27%
c i 43.82 27 138 0 47 17896 18 214580 20007 2.7 21 8 1 5 24% 3340 84875 9916 27%
c i 43.83 27 138 0 47 17905 18 214816 20193 2.7 21 8 1 5 24% 3350 84875 9915 27%
c i 43.85 27 137 0 47 17952 18 215806 21075 2.7 21 8 1 5 24% 3359 84875 9914 27%
c i 43.86 27 136 0 47 17959 18 216721 21774 2.7 21 8 1 5 24% 3387 84875 9913 27%
c i 43.86 27 136 0 47 17962 18 216848 21870 2.7 21 8 1 5 23% 3394 84875 9908 27%
c } 43.86 27 136 0 47 17962 18 216870 21872 2.7 21 8 1 5 23% 3400 84875 9895 27%
c 0 43.86 27 136 0 47 17962 18 216870 21872 2.7 21 8 1 5 23% 3400 84875 9895 27%
c
c ---- [ result ] ------------------------------------------------------------
c
s UNSATISFIABLE
c
c ---- [ profiling ] ---------------------------------------------------------
c
c          29.67   67.65 %  search
c          29.67   67.65 %  focused
c          13.84   31.55 %  simplify
c          13.17   30.03 %  probe
c           6.20   14.13 %  sweep
c           5.03   11.46 %  vivify
c           0.87    1.97 %  eliminate
c           0.80    1.82 %  factor
c           0.57    1.31 %  substitute
c           0.37    0.85 %  congruence
c           0.30    0.68 %  preprocess
c           0.23    0.51 %  reduce
c           0.15    0.35 %  subsume
c           0.13    0.30 %  transitive
c           0.09    0.21 %  fastel
c           0.07    0.15 %  backbone
c           0.03    0.07 %  lucky
c           0.02    0.05 %  parse
c =============================================
c          43.86  100.00 %  total
c
c ---- [ statistics ] --------------------------------------------------------
c
c chronological:                         6792                3 %  conflicts
c conflicts:                           216870             4944.33 per second
c congruent:                             3881               11 %  variables
c decisions:                          4158743               19.18 per conflict
c eliminated:                           19940               55 %  variables
c factored:                              3581               10 %  variables
c fast_eliminated:                      11026               55 %  eliminated
c fast_strengthened:                        3                0 %  per strengthened
c fast_subsumed:                           66                1 %  per subsumed
c iterations:                              24                0 %  variables
c propagations:                     169485321          3864027    per second
c reductions:                              47             4614    interval
c reordered:                                6            36145    interval
c restarts:                             17962               12    interval
c strengthened:                          5509                0 %  checks
c substituted:                          10189               28 %  variables
c subsumed:                             11993                0 %  checks
c switched:                                 0                0    interval
c vivified:                            100235               14 %  checks
c
c ---- [ glue usage ] --------------------------------------------------------
c
c focused glue 1 used 386093 clauses 61.34% accumulated 61.34% tier1
c focused glue 2 used 115384 clauses 18.33% accumulated 79.67%
c focused glue 3 used  38943 clauses  6.19% accumulated 85.86%
c focused glue 4 used  23460 clauses  3.73% accumulated 89.58%
c focused glue 5 used  14904 clauses  2.37% accumulated 91.95% tier2
c
c ---- [ resources ] ---------------------------------------------------------
c
c maximum-resident-set-size:         30752768 bytes         29 MB
c process-time:                            44s              43.86 seconds
c
c ---- [ shutting down ] -----------------------------------------------------
c
c exit 20
